#OUTPUT
 $PCS_TYPE
  HEAT_TRANSPORT
 $NOD_VALUES
  TEMPERATURE1
 $GEO_TYPE
  DOMAIN
  $DAT_TYPE
    PVD
  $TIM_TYPE
  0.1
  0.9
  5
  10
  20
  50
  100
  120
  180
  200
  220
  240
  280
  400
  450
  500
  550
  600
  650
  700
  750
  800
  850
  900
  910
  950
  1000
  1050
  1150
  1200
  1250
  1270
  1300
  1350
  1400
  1451
  1452
#OUTPUT
 $PCS_TYPE
  HEAT_TRANSPORT
 $NOD_VALUES
  TEMPERATURE1
 $GEO_TYPE
  POINT ALC1616_02
  $DAT_TYPE
    TECPLOT
  $TIM_TYPE
  STEPS 1
#OUTPUT
 $PCS_TYPE
  LIQUID_FLOW
 $NOD_VALUES
  PRESSURE1
  VELOCITY_X1
  VELOCITY_Y1
  VELOCITY_Z1
 $MFP_VALUES
  DENSITY
  VISCOSITY
 $GEO_TYPE
  DOMAIN
  $DAT_TYPE
    PVD
  $TIM_TYPE
  0.1
  0.9
  5
  10
  20
  50
  100
  120
  180
  200
  220
  240
  280
  400
  450
  500
  550
  600
  650
  700
  750
  800
  850
  900
  910
  950
  1000
  1050
  1150
  1200
  1250
  1270
  1300
  1350
  1400
  1451
  1452
#OUTPUT
 $PCS_TYPE
  LIQUID_FLOW
 $NOD_VALUES
  PRESSURE1
  VELOCITY_X1
  VELOCITY_Y1
  VELOCITY_Z1
 $MFP_VALUES
  DENSITY
  VISCOSITY
 $GEO_TYPE
  POINT ALC1616_02
  $DAT_TYPE
    TECPLOT
  $TIM_TYPE
  STEPS 1
#OUTPUT
 $PCS_TYPE
  DEFORMATION
 $NOD_VALUES
  DISPLACEMENT_X1
  DISPLACEMENT_Y1
  STRESS_XX
  STRESS_XY
  STRESS_YY
  STRESS_ZZ
  STRAIN_XX
  STRAIN_XY
  STRAIN_YY
 $GEO_TYPE
  DOMAIN
  $DAT_TYPE
    PVD
  $TIM_TYPE
  0.1
  0.9
  5
  10
  20
  50
  100
  120
  180
  200
  220
  240
  280
  400
  450
  500
  550
  600
  650
  700
  750
  800
  850
  900
  910
  950
  1000
  1050
  1150
  1200
  1250
  1270
  1300
  1350
  1400
  1451
  1452
#OUTPUT
 $PCS_TYPE
  DEFORMATION
 $NOD_VALUES
  DISPLACEMENT_X1
  DISPLACEMENT_Y1
  STRESS_XX
  STRESS_XY
  STRESS_YY
  STRESS_ZZ
  STRAIN_XX
  STRAIN_XY
  STRAIN_YY
 $GEO_TYPE
  POINT ALC1616_02
  $DAT_TYPE
    TECPLOT
  $TIM_TYPE
  STEPS 1
#STOP

